
Gurobi 6.5.2 (win64) logging started 07/24/16 17:38:59


Gurobi 6.5.2 (win64) logging started 07/24/16 17:38:59

Optimize a model with 2983 rows, 763 columns and 7722 nonzeros
Coefficient statistics:
  Matrix range    [6e-08, 1e+03]
  Objective range [1e+00, 1e+00]
  Bounds range    [1e+00, 1e+00]
  RHS range       [6e-06, 2e+03]
Presolve removed 2740 rows and 512 columns
Presolve time: 0.02s
Presolved: 243 rows, 251 columns, 1046 nonzeros
Variable types: 251 continuous, 0 integer (0 binary)

Root relaxation: objective 2.163364e+01, 258 iterations, 0.00 seconds

    Nodes    |    Current Node    |     Objective Bounds      |     Work
 Expl Unexpl |  Obj  Depth IntInf | Incumbent    BestBd   Gap | It/Node Time

*    0     0               0      21.6336410   21.63364  0.00%     -    0s

Explored 0 nodes (258 simplex iterations) in 0.02 seconds
Thread count was 8 (of 8 available processors)

Optimal solution found (tolerance 1.00e-04)
Best objective 2.163364099388e+01, best bound 2.163364099388e+01, gap 0.0%

Wrote requested result file 'H1\instance22\\Results22EC_Sol2.lp'

